p tw 283 318
1 2
2 113
3 14
4 5
5 6
6 7
7 8
8 9
9 10
10 11
11 12
12 13
13 15
14 25
15 16
16 17
17 18
18 19
19 20
20 21
20 23
21 22
22 251
23 24
24 204
25 36
25 216
26 27
27 28
28 29
29 30
30 31
31 32
32 33
33 34
34 35
35 37
36 47
37 38
38 39
39 40
40 41
41 42
42 43
43 44
44 45
45 46
46 48
47 58
47 75
48 49
49 50
49 52
50 51
51 43
52 53
53 54
54 55
54 64
55 56
56 57
57 59
58 69
59 60
59 61
60 204
61 62
62 63
63 52
64 65
65 204
66 67
67 68
68 70
69 80
69 227
70 71
71 72
72 73
73 74
73 109
74 70
75 76
76 77
77 78
78 79
79 81
80 91
81 82
82 83
83 84
84 85
85 86
85 79
86 87
87 88
88 111
89 90
90 92
91 102
91 66
92 93
93 94
94 95
95 96
96 97
97 98
98 99
99 100
100 101
101 103
102 114
103 104
104 105
105 106
105 93
106 107
107 108
108 111
109 110
110 111
111 112
112 115
113 207
114 125
114 243
115 116
116 117
116 251
117 118
118 119
119 120
120 121
120 141
121 122
122 123
123 124
124 126
125 136
126 127
127 128
128 129
128 134
129 130
130 131
131 132
132 133
132 134
133 204
134 135
135 137
136 147
136 89
137 138
138 139
139 140
139 124
140 204
141 142
142 143
143 144
143 170
144 145
145 146
146 148
147 158
148 149
149 150
150 151
151 152
152 153
153 154
154 155
155 156
156 157
156 163
157 159
158 169
158 234
159 160
160 161
161 162
161 163
162 204
163 164
164 165
165 166
166 167
167 168
167 153
168 204
169 180
170 171
171 172
172 173
173 174
174 175
174 186
175 176
176 177
177 178
178 179
178 181
179 204
180 191
180 234
181 182
182 183
183 184
184 185
185 186
185 172
186 187
187 204
188 189
189 190
190 192
191 202
192 193
193 194
194 195
195 196
196 197
197 198
198 199
199 200
200 201
201 203
202 206
202 261
203 251
204 205
206 208
207 218
208 209
208 271
209 210
210 211
210 281
211 212
212 213
212 26
213 214
214 215
214 239
215 188
216 217
217 219
218 229
219 220
220 221
221 222
222 223
223 224
224 225
225 226
225 251
226 204
227 228
228 230
229 240
230 231
231 232
232 233
232 251
233 204
234 235
235 236
236 237
237 238
237 251
238 204
239 241
240 251
241 242
242 204
243 244
244 245
245 246
246 247
247 248
248 249
249 250
250 252
251 262
252 253
253 254
254 255
255 256
256 257
256 259
257 258
258 251
259 260
260 204
261 263
262 273
263 264
264 265
265 266
266 267
267 268
268 269
269 270
270 251
271 272
272 274
273 3
274 275
275 276
276 277
277 278
278 279
279 280
280 251
281 282
282 283
283 4
